50
    30    84    79    73    81    84    38    25    16    78    24     3    47    88    21    59    58    26    29    91    92    96    67    33    64    91    65    63    49    96    71    97    90    86    49    95    98    26    78    53    45    74    52    12    72    75    82    51    85    68
     7     7     6     2     8    10     2     3    10     5    10     8     1     9     1     2     9     3     6     1     9     6     5     5    10     5     1     5     6     3    10     4     5    10     4     7     2     4     2     2     2     1     3     9     1     2     5     1     3     8
  3282  2924  3244  1573  2549  2007  3049  2262  2059  2871  3270  2408  1851  2331  2143  2384  2332  2266  2611  2008  2938  1871  2133  1646  1726  2031  2057  2390  3353  3155  3022  1569  1890  2099  3152  2249  1858  3055  2773  3149  2899  3278  2608  2550  2171  2117  2902  3128  3255  1654
